
Gurobi 10.0.1 (win64) logging started Tue May  2 07:15:11 2023

Set parameter LogFile to value "logFiles/N-1L-C/N-1L-14U-34F-23V-365D-varprod.log"
Gurobi Optimizer version 10.0.1 build v10.0.1rc0 (win64)

CPU model: Intel(R) Core(TM) i7-10700 CPU @ 2.90GHz, instruction set [SSE2|AVX|AVX2]
Thread count: 8 physical cores, 16 logical processors, using up to 16 threads

Optimize a model with 290270 rows, 3417295 columns and 21436193 nonzeros
Model fingerprint: 0x1dbc77a1
Variable types: 10248 continuous, 3407047 integer (3407047 binary)
Coefficient statistics:
  Matrix range     [1e+00, 2e+05]
  Objective range  [4e+01, 3e+07]
  Bounds range     [1e+00, 1e+00]
  RHS range        [1e+00, 5e+06]
Presolve removed 141700 rows and 58442 columns (presolve time = 5s) ...
Presolve removed 152570 rows and 64444 columns (presolve time = 10s) ...
Presolve removed 152570 rows and 64444 columns (presolve time = 15s) ...
Presolve removed 156878 rows and 64483 columns (presolve time = 20s) ...
Presolve removed 156969 rows and 64548 columns (presolve time = 25s) ...
Presolve removed 156969 rows and 64548 columns (presolve time = 30s) ...
Presolve removed 156969 rows and 64548 columns (presolve time = 35s) ...
Presolve removed 159695 rows and 67202 columns
Presolve time: 39.95s
Presolved: 130575 rows, 3350093 columns, 19407624 nonzeros
Variable types: 5888 continuous, 3344205 integer (3344205 binary)

Root relaxation: time limit, 0 iterations, 9.01 seconds (13.28 work units)

Explored 1 nodes (0 simplex iterations) in 60.69 seconds (113.09 work units)
Thread count was 16 (of 16 available processors)

Solution count 0

Time limit reached
Best objective -, best bound 2.462348342301e+13, gap -
IIS computation: initial model status unknown, solving to determine model status
Presolve removed 141700 rows and 58443 columns (presolve time = 5s) ...
Presolve removed 152652 rows and 67235 columns (presolve time = 10s) ...
Presolve removed 152652 rows and 67235 columns (presolve time = 15s) ...
Presolve removed 159727 rows and 67235 columns (presolve time = 20s) ...
Presolve removed 159727 rows and 67235 columns (presolve time = 25s) ...
Presolve removed 159727 rows and 67235 columns (presolve time = 30s) ...
Presolve removed 159727 rows and 67235 columns (presolve time = 35s) ...
Presolve removed 159695 rows and 67203 columns
Presolve time: 38.95s
Presolved: 130575 rows, 3350092 columns, 19407623 nonzeros
Variable types: 5887 continuous, 3344205 integer (3344205 binary)

Root relaxation: time limit, 0 iterations, 8.33 seconds (13.54 work units)

Explored 1 nodes (0 simplex iterations) in 60.36 seconds (110.29 work units)
Thread count was 16 (of 16 available processors)

Solution count 0

Time limit reached
Best objective -, best bound -0.000000000000e+00, gap -
IIS runtime: 60.66 seconds (110.29 work units)
